10
1 0 79
2 0 41
2 1 33
3 0 48
3 1 83
3 2 51
4 0 18
4 1 44
4 2 9
4 3 6
5 0 90
5 1 76
5 2 43
5 3 61
5 4 24
6 0 43
6 1 3
6 2 68
6 3 11
6 4 21
6 5 65
7 0 100
7 1 65
7 2 22
7 3 31
7 4 52
7 5 14
7 6 74
8 0 93
8 1 56
8 2 25
8 3 40
8 4 60
8 5 70
8 6 67
8 7 61
9 0 58
9 1 8
9 2 96
9 3 7
9 4 14
9 5 30
9 6 31
9 7 58
9 8 84
